Route #1: 1 13 35 27 5 7 22 10 9 39 3 1
Route #2: 1 36 40 33 14 19 8 17 21 1
Route #3: 1 41 18 24 26 16 11 1
Route #4: 1 23 6 31 38 2 43 1
Route #5: 1 29 4 12 44 42 28 15 1
Route #6: 1 20 37 30 32 34 1
Route #7: 1 25 45 1
cost 1266.436274149975
